 C  H                                   
   1.00000000000000     
    20.0000000000000000    0.0000000000000000    0.0000000000000000
     0.0000000000000000   20.0000000000000000    0.0000000000000000
     0.0000000000000000    0.0000000000000000   20.0000000000000000
   C    H 
     1     4
Direct
  0.5043132090573224  0.4949999999999974  0.4849105733401302
  0.5360569087375211  0.5267436996802033  0.5166542730203361
  0.4725695093771165  0.4632563003197987  0.5166542730203361
  0.5360569087375211  0.4632563003197987  0.4531668736599315
  0.4725695093771165  0.5267436996802033  0.4531668736599315
 
  0.00000000E+00  0.00000000E+00  0.00000000E+00
  0.00000000E+00  0.00000000E+00  0.00000000E+00
  0.00000000E+00  0.00000000E+00  0.00000000E+00
  0.00000000E+00  0.00000000E+00  0.00000000E+00
  0.00000000E+00  0.00000000E+00  0.00000000E+00
