 C  H                                   
   1.00000000000000     
    20.0000000000000000    0.0000000000000000    0.0000000000000000
     0.0000000000000000   21.0000000000000000    0.0000000000000000
     0.0000000000000000    0.0000000000000000   22.0000000000000000
   C    H 
     2     2
Direct
  0.5000000000000000  0.5000000000000000  0.5274425441999478
  0.5000000000000000  0.5000000000000000  0.4725574558000522
  0.5000000000000000  0.5000000000000000  0.4238729243094863
  0.5000000000000000  0.5000000000000000  0.5761270756905137
 
  0.00000000E+00  0.00000000E+00  0.00000000E+00
  0.00000000E+00  0.00000000E+00  0.00000000E+00
  0.00000000E+00  0.00000000E+00  0.00000000E+00
  0.00000000E+00  0.00000000E+00  0.00000000E+00
