 O  C                                   
   1.00000000000000     
    20.0000000000000000    0.0000000000000000    0.0000000000000000
     0.0000000000000000   20.0000000000000000    0.0000000000000000
     0.0000000000000000    0.0000000000000000   20.0000000000000000
   O    C 
     1     1
Direct
  0.5000000000002558  0.5349986692189077  0.5537106608548328
  0.4999999999997442  0.5350013307810855  0.4962893391451644
 
  0.00000000E+00  0.00000000E+00  0.00000000E+00
  0.00000000E+00  0.00000000E+00  0.00000000E+00
