 C  H                                   
   1.00000000000000     
    20.0000000000000000    0.0000000000000000    0.0000000000000000
     0.0000000000000000   20.0000000000000000    0.0000000000000000
     0.0000000000000000    0.0000000000000000   20.0000000000000000
   C    H 
     2     6
Direct
  0.4950050222211006  0.5150043976625240  0.5484373480760764
  0.4949970104346529  0.5149978727784096  0.4715149906899125
  0.4949984595371555  0.5663870715564321  0.5684166572708744
  0.4504939981811752  0.4893083210548876  0.5684195635831184
  0.5395043865082779  0.4893071074190397  0.5684222768120570
  0.4949983057433279  0.4636125461709174  0.4515992846908368
  0.4504970889394338  0.5406895653319976  0.4515969170962050
  0.5395057284348556  0.5406931180257964  0.4515929617809247
 
  0.00000000E+00  0.00000000E+00  0.00000000E+00
  0.00000000E+00  0.00000000E+00  0.00000000E+00
  0.00000000E+00  0.00000000E+00  0.00000000E+00
  0.00000000E+00  0.00000000E+00  0.00000000E+00
  0.00000000E+00  0.00000000E+00  0.00000000E+00
  0.00000000E+00  0.00000000E+00  0.00000000E+00
  0.00000000E+00  0.00000000E+00  0.00000000E+00
  0.00000000E+00  0.00000000E+00  0.00000000E+00
