 C  H                                   
   1.00000000000000     
    20.0000000000000000    0.0000000000000000    0.0000000000000000
     0.0000000000000000   21.0000000000000000    0.0000000000000000
     0.0000000000000000    0.0000000000000000   22.0000000000000000
   C    H 
     1     4
Direct
  0.5000000000000000  0.5000000000000000  0.5000000000000000
  0.5316697306620737  0.5301607536474364  0.5287902325501305
  0.4683302693379263  0.4698392463525636  0.5287902325501305
  0.5316697306620737  0.4698392463525636  0.4712097674498696
  0.4683302693379263  0.5301607536474364  0.4712097674498696
 
  0.00000000E+00  0.00000000E+00  0.00000000E+00
  0.00000000E+00  0.00000000E+00  0.00000000E+00
  0.00000000E+00  0.00000000E+00  0.00000000E+00
  0.00000000E+00  0.00000000E+00  0.00000000E+00
  0.00000000E+00  0.00000000E+00  0.00000000E+00
