 H 
 1.0000000000000000
    20.0000000000000000    0.0000000000000000    0.0000000000000000
     0.0000000000000000   21.0000000000000000    0.0000000000000000
     0.0000000000000000    0.0000000000000000   22.0000000000000000
   2
Cartesian
 10.0000000000000000 10.5000000000000000 11.3685829999999992
 10.0000000000000000 10.5000000000000000 10.6314170000000008
