 C  H                                   
   1.00000000000000     
    20.0000000000000000    0.0000000000000000    0.0000000000000000
     0.0000000000000000   20.0000000000000000    0.0000000000000000
     0.0000000000000000    0.0000000000000000   20.0000000000000000
   C    H 
     3     8
Direct
  0.4999999998551433  0.4949974942035603  0.5013381300233588
  0.4999999999414109  0.5588455559112372  0.4584871782623217
  0.4999999999451281  0.4311543174082817  0.4584871306740266
  0.4557846280219803  0.4950008649622397  0.5344214834921117
  0.5442153706639052  0.4950008648243924  0.5344214854400228
  0.4999999997716371  0.6043088888518903  0.4896461276534595
  0.4999999996585470  0.3856945497481470  0.4896475364180237
  0.5444728453653946  0.5604990358272797  0.4258876760613160
  0.4555271557654894  0.5604990358658306  0.4258876737174230
  0.4555272058325637  0.4294996961884328  0.4258877880232578
  0.5444727951787933  0.4294996962086872  0.4258877902346875
 
  0.00000000E+00  0.00000000E+00  0.00000000E+00
  0.00000000E+00  0.00000000E+00  0.00000000E+00
  0.00000000E+00  0.00000000E+00  0.00000000E+00
  0.00000000E+00  0.00000000E+00  0.00000000E+00
  0.00000000E+00  0.00000000E+00  0.00000000E+00
  0.00000000E+00  0.00000000E+00  0.00000000E+00
  0.00000000E+00  0.00000000E+00  0.00000000E+00
  0.00000000E+00  0.00000000E+00  0.00000000E+00
  0.00000000E+00  0.00000000E+00  0.00000000E+00
  0.00000000E+00  0.00000000E+00  0.00000000E+00
  0.00000000E+00  0.00000000E+00  0.00000000E+00
