 O  H                                   
   1.00000000000000     
    20.0000000000000000    0.0000000000000000    0.0000000000000000
     0.0000000000000000   20.0000000000000000    0.0000000000000000
     0.0000000000000000    0.0000000000000000   20.0000000000000000
   O    H 
     1     2
Direct
  0.5249838437525725  0.5049993712386041  0.4949478419074893
  0.5250082698806011  0.5433847551329833  0.4650266466446809
  0.5250078863668222  0.4666158736284061  0.4650255114478270
 
  0.00000000E+00  0.00000000E+00  0.00000000E+00
  0.00000000E+00  0.00000000E+00  0.00000000E+00
  0.00000000E+00  0.00000000E+00  0.00000000E+00
