 C  H                                   
   1.00000000000000     
    20.0000000000000000    0.0000000000000000    0.0000000000000000
     0.0000000000000000   21.0000000000000000    0.0000000000000000
     0.0000000000000000    0.0000000000000000   22.0000000000000000
   C    H 
     2     6
Direct
  0.5000000000000000  0.5000008224725648  0.5346876103597584
  0.5000000000000000  0.4999991775274352  0.4653123896402416
  0.5000000000000000  0.5488541554320783  0.5528012345539954
  0.4555749531998229  0.4755731962264896  0.5528010037021539
  0.5444250468001772  0.4755731962264896  0.5528010037021539
  0.5000000000000000  0.4511458445679218  0.4471987654460045
  0.4555749531998229  0.5244268037735103  0.4471989962978460
  0.5444250468001772  0.5244268037735103  0.4471989962978460
 
  0.00000000E+00  0.00000000E+00  0.00000000E+00
  0.00000000E+00  0.00000000E+00  0.00000000E+00
  0.00000000E+00  0.00000000E+00  0.00000000E+00
  0.00000000E+00  0.00000000E+00  0.00000000E+00
  0.00000000E+00  0.00000000E+00  0.00000000E+00
  0.00000000E+00  0.00000000E+00  0.00000000E+00
  0.00000000E+00  0.00000000E+00  0.00000000E+00
  0.00000000E+00  0.00000000E+00  0.00000000E+00
