 C  O                                   
   1.00000000000000     
    20.0000000000000000    0.0000000000000000    0.0000000000000000
     0.0000000000000000   20.0000000000000000    0.0000000000000000
     0.0000000000000000    0.0000000000000000   20.0000000000000000
   C    O 
     1     2
Direct
  0.4899997913392085  0.5200005239576768  0.5100000279756571
  0.4900001187660905  0.5199999369176211  0.5690671012581348
  0.4900000898946999  0.5199995391246901  0.4509328707662092
 
  0.00000000E+00  0.00000000E+00  0.00000000E+00
  0.00000000E+00  0.00000000E+00  0.00000000E+00
  0.00000000E+00  0.00000000E+00  0.00000000E+00
