 C  H                                   
   1.00000000000000     
    20.0000000000000000    0.0000000000000000    0.0000000000000000
     0.0000000000000000   21.0000000000000000    0.0000000000000000
     0.0000000000000000    0.0000000000000000   22.0000000000000000
   C    H 
     2     4
Direct
  0.5000000000000000  0.5000000000000000  0.5303006679793817
  0.5000000000000000  0.5000000000000000  0.4696993320206183
  0.5000000000000000  0.5442449319011444  0.5564073612206282
  0.5000000000000000  0.4557550680988557  0.5564073612206282
  0.5000000000000000  0.5442449319011444  0.4435926387793718
  0.5000000000000000  0.4557550680988557  0.4435926387793718
 
  0.00000000E+00  0.00000000E+00  0.00000000E+00
  0.00000000E+00  0.00000000E+00  0.00000000E+00
  0.00000000E+00  0.00000000E+00  0.00000000E+00
  0.00000000E+00  0.00000000E+00  0.00000000E+00
  0.00000000E+00  0.00000000E+00  0.00000000E+00
  0.00000000E+00  0.00000000E+00  0.00000000E+00
